COMUNI = {
	corciano,
	marsciano,
	bastia_umbra,
	spoleto,
	narni,
	umbertide,
	castiglione_del_lago,
	amelia,
};

NUMERO_COMUNI = 8;

ABITANTI_PER_COMUNE = [21, 18, 21, 36, 17, 16, 15, 11];

STRADE_TRA_COMUNI = [|
	false, false, false, false, false, false, false, false |
	false, false, false, false, false, false, false, false |
	false, false, false, false, false, false, false, false |
	false, false, false, false, false, false, false, false |
	false, false, false, false, false, false, false, true |
	false, false, false, false, false, false, false, false |
	false, false, false, false, false, false, false, false |
	false, false, false, false, true, false, false, false |
|];

RICHIESTE = [|
	21, 24, 30, 98, 72 |
	88, 1, 4, 45, 20 |
	10, 12, 29, 5, 1 |
	67, 40, 0, 26, 31 |
	30, 13, 28, 10, 31 |
	12, 13, 39, 22, 3 |
	12, 29, 6, 5, 4 |
	28, 3, 42, 5, 19 |
|];
